c CaDiCaL Radically Simplified CDCL SAT Solver
c Copyright (c) 2016-2021 Armin Biere, University of Freiburg
c Version 1.5.3 cb89cbfa16f47cb7bf1ec6ad9855e7b6d5203c18
c g++ (GCC) 10.2.0 -Wall -Wextra -O3 -DNDEBUG
c Sat Nov 13 09:32:17 UTC 2021 Linux 5.10.0-9-amd64 x86_64
c 
c --- [ config ] -------------------------------------------------------------
c 
c using 'unsat' configuration (target unsatisfiable instances)
c chronological 1
c 
c --- [ parsing ] ------------------------------------------------------------
c 
c reading DIMACS file from '/workspace/input/problem2.cnf'
c opening file to read '/workspace/input/problem2.cnf'
c found 'p cnf 2847 12563' header
c parsed 12563 clauses in 0.01 seconds process time
c 
c --- [ options ] ------------------------------------------------------------
c 
c all options are set to their default value
c 
c --- [ solving ] ------------------------------------------------------------
c 
c time measured in process time since initialization
c 
c  seconds   reductions  redundant  irredundant
c          MB    restarts       trail       variables
c           level   conflicts       glue         remaining
c 
c *  0.02  31  0 0   0    0    0  0% 0 12563 2847 100%
c {  0.02  32  0 0   0    0    0  0% 0 12563 2847 100%
c i  0.06  34  48 0  14  287  198  8% 8 12563 2841 100%
c }  0.08  35  45 0  28  512  356  8% 8 12430 2832  99%
c 0  0.08  35  45 0  28  512  356  8% 8 12430 2832  99%
c 
c --- [ result ] -------------------------------------------------------------
c 
s SATISFIABLE
c 
c --- [ run-time profiling ] -------------------------------------------------
c 
c process time taken by individual solving procedures
c (percentage relative to process time for solving)
c 
c         0.06   92.31% search
c         0.06   84.62% unstable
c         0.01    7.69% lucky
c         0.00    0.00% simplify
c   =================================
c         0.07   82.93% solve
c 
c last line shows process time for solving
c (percentage relative to total process time)
c 
c --- [ statistics ] ---------------------------------------------------------
c 
c chronological:               748        73.67 %  of conflicts
c chronological_backtracks:    187        25.00 %  of backtracks
c conflicts:                   512      7680.00    per second
c decisions:                  3842     57630.77    per second
c eliminated:                    0         0.00 %  of all variables
c fixed:                        15         0.53 %  of all variables
c learned:                     467        91.21 %  per conflict
c minimized:                  2834        28.45 %  learned literals
c propagations:             219847   3297712.31    per second
c reduced:                      24         4.69 %  per conflict
c rephased:                      1      5120.00    interval
c restarts:                     28        18.29    interval
c subsumed:                     42         0.01 %  of all clauses
c 
c seconds are measured in process time for solving
c 
c --- [ resources ] ----------------------------------------------------------
c 
c total process time since initialization:         5.47 seconds
c total real time since initialization:            5.48 seconds
c maximum resident set size of process:           35.21 MB
c 
c --- [ shutting down ] ------------------------------------------------------
c 
c exit 10